500
[100,103,105,108,110,111,112,113,115,117,118,120,121,122,123,124,125,127,130,132,133,135,136,138,139,141,144,146,147,148,149,150,152,153,155,158,159,160,161,162,163,164,166,169,170,173,176,178,181,185,186,187,188,190,191,193,194,197,200,203,204,205,206,209,215,222,223,224,226,227,228,229,231,233,236,238,240,242,246,247,248,249,250,251,252,253,258,259,260,263,265,266,267,268,272,273,275,276,277,278,281,282,283,286,287,288,290,291,292,293,297,300,301,302,303,304,307,310,311,312,315,317,318,320,321,324,326,327,330,332,333,334,335,336,338,339,340,341,342,346,349]
[2,1,1,2,1,1,1,1,1,1,1,1,1,1,1,1,2,1,2,2,1,1,2,1,1,1,1,1,2,2,1,3,2,1,1,3,1,1,1,1,2,2,1,2,1,1,3,1,2,1,1,2,2,2,1,1,1,2,3,1,1,2,2,1,1,1,1,1,1,1,2,2,1,1,1,1,1,2,1,2,3,1,1,2,1,1,1,2,1,1,1,1,1,1,1,1,1,3,1,1,2,3,2,1,1,1,1,3,1,1,1,1,1,1,1,2,2,1,2,4,2,2,1,1,1,1,1,3,1,1,1,2,2,1,2,3,2,1,1,1,1]
